decision_x1=[0,7];
decision_x2=[0,7];
decision_x3=[0,7];
decision_x4=[0,7];
decision_x5=[0,7];
decision_x6=[0,7];
decision_x7=[0,7];
decision_x8=[0,7];
decision_x9=[0,7];
decision_x10=[0,7];
decision_x11=[0,7];
decision_x12=[0,7];
decision_x13=[0,7];
decision_x14=[0,7];
decision_x15=[0,7];
decision_x16=[0,7];
decision_x17=[0,7];
decision_x18=[0,7];
random_y1=[0,7];
random_y2=[0,7];
random_y3=[0,7];
random_y4=[0,7];
random_y5=[0,7];
random_y6=[0,7];
random_y7=[0,7];
random_y8=[0,7];
constraint_x2_x1=[
0,0,0.23|
0,1,5.9|
0,2,8.6|
0,3,9.4|
0,4,0.12|
0,5,1.6|
0,6,0.54|
0,7,1.4|
1,0,9.4|
1,1,6.7|
1,2,7.8|
1,3,3.1|
1,4,8.3|
1,5,0.36|
1,6,1.1|
1,7,8.7|
2,0,0.22|
2,1,10|
2,2,5.2|
2,3,1.3|
2,4,0.6|
2,5,8.2|
2,6,3.5|
2,7,0.2|
3,0,7.8|
3,1,9.3|
3,2,2.4|
3,3,0.7|
3,4,1.7|
3,5,8.5|
3,6,2.7|
3,7,3.2|
4,0,9|
4,1,8|
4,2,8.5|
4,3,6.6|
4,4,7.3|
4,5,8.3|
4,6,1.7|
4,7,4.7|
5,0,7.7|
5,1,0.35|
5,2,4.2|
5,3,9.9|
5,4,3.8|
5,5,1.9|
5,6,6.8|
5,7,0.94|
6,0,4.9|
6,1,3.2|
6,2,7.3|
6,3,5.4|
6,4,1.7|
6,5,2.8|
6,6,3.2|
6,7,6.7|
7,0,7.7|
7,1,4.5|
7,2,3.2|
7,3,9.3|
7,4,5.1|
7,5,9.1|
7,6,8.1|
7,7,6.3|
];
constraint_x3_x2=[
0,0,3.2|
0,1,2.8|
0,2,1|
0,3,7|
0,4,7.3|
0,5,2|
0,6,7.4|
0,7,7.4|
1,0,8.4|
1,1,3.6|
1,2,1.8|
1,3,2|
1,4,3.9|
1,5,9|
1,6,0.67|
1,7,0.94|
2,0,4.8|
2,1,3.6|
2,2,2.6|
2,3,3.3|
2,4,5.9|
2,5,4.1|
2,6,3.7|
2,7,7.1|
3,0,1.9|
3,1,8.2|
3,2,2.4|
3,3,1.1|
3,4,3.1|
3,5,7|
3,6,5.4|
3,7,8.2|
4,0,4|
4,1,4.2|
4,2,2.1|
4,3,2.2|
4,4,7.5|
4,5,4.2|
4,6,3.1|
4,7,5.1|
5,0,1.4|
5,1,2.8|
5,2,9.4|
5,3,1.1|
5,4,7.8|
5,5,3.6|
5,6,4.5|
5,7,9.4|
6,0,9.1|
6,1,0.42|
6,2,9.8|
6,3,0.36|
6,4,4.5|
6,5,2.9|
6,6,2.9|
6,7,4.2|
7,0,9.2|
7,1,4.2|
7,2,8.4|
7,3,7.7|
7,4,2.5|
7,5,4.2|
7,6,6.5|
7,7,1|
];
constraint_x4_x3=[
0,0,0.64|
0,1,0.039|
0,2,9|
0,3,9.4|
0,4,8.7|
0,5,9.8|
0,6,2.7|
0,7,1.2|
1,0,2|
1,1,0.74|
1,2,4.7|
1,3,6.3|
1,4,1.9|
1,5,8.6|
1,6,2|
1,7,6.2|
2,0,5.5|
2,1,8.4|
2,2,4.5|
2,3,6.7|
2,4,6.5|
2,5,6.2|
2,6,7.7|
2,7,7.3|
3,0,8.7|
3,1,6.6|
3,2,7.8|
3,3,2.9|
3,4,8.9|
3,5,4.7|
3,6,4.7|
3,7,3.9|
4,0,6|
4,1,3.1|
4,2,7|
4,3,9.3|
4,4,6.2|
4,5,1.3|
4,6,8.1|
4,7,3.6|
5,0,8|
5,1,8.4|
5,2,7.9|
5,3,7.4|
5,4,4.6|
5,5,1.3|
5,6,5|
5,7,3.5|
6,0,5.8|
6,1,7.4|
6,2,4.7|
6,3,1.1|
6,4,7.6|
6,5,4.3|
6,6,9.3|
6,7,3.7|
7,0,2.2|
7,1,4.8|
7,2,9.4|
7,3,8.3|
7,4,3.9|
7,5,6.9|
7,6,9.2|
7,7,5.7|
];
constraint_x5_x1=[
0,0,8.9|
0,1,5.3|
0,2,9.7|
0,3,5.4|
0,4,2|
0,5,9.8|
0,6,3.8|
0,7,6.3|
1,0,0.68|
1,1,0.84|
1,2,3|
1,3,2.4|
1,4,8.1|
1,5,5.3|
1,6,3.4|
1,7,4.3|
2,0,0.57|
2,1,1|
2,2,0.4|
2,3,3.9|
2,4,9.6|
2,5,3.2|
2,6,5.2|
2,7,2.9|
3,0,9.4|
3,1,3.1|
3,2,9.8|
3,3,0.93|
3,4,7.4|
3,5,8.8|
3,6,3.7|
3,7,7.5|
4,0,8.5|
4,1,9.4|
4,2,0.98|
4,3,6.9|
4,4,1|
4,5,1.3|
4,6,5.2|
4,7,2.2|
5,0,1.7|
5,1,3.9|
5,2,4.8|
5,3,7.6|
5,4,0.28|
5,5,9.9|
5,6,6.8|
5,7,0.68|
6,0,7.6|
6,1,2.5|
6,2,4.7|
6,3,8.3|
6,4,8.4|
6,5,6.6|
6,6,7.5|
6,7,5.7|
7,0,8.9|
7,1,6.1|
7,2,3.5|
7,3,8|
7,4,3.9|
7,5,6.4|
7,6,8.2|
7,7,5.4|
];
constraint_x6_x2=[
0,0,5.8|
0,1,4.5|
0,2,2.9|
0,3,0.82|
0,4,8.9|
0,5,5.2|
0,6,0.12|
0,7,8|
1,0,6.6|
1,1,7.7|
1,2,7.1|
1,3,6.7|
1,4,4|
1,5,1.2|
1,6,4.3|
1,7,6.5|
2,0,7.4|
2,1,0.41|
2,2,6.9|
2,3,8.6|
2,4,4.1|
2,5,2.7|
2,6,0.4|
2,7,6.9|
3,0,4.9|
3,1,4.1|
3,2,9.6|
3,3,7.6|
3,4,2|
3,5,9|
3,6,0.97|
3,7,8.5|
4,0,6.7|
4,1,3.3|
4,2,3.9|
4,3,6.4|
4,4,10|
4,5,0.54|
4,6,1|
4,7,6.1|
5,0,6|
5,1,9.3|
5,2,6|
5,3,0.84|
5,4,9.1|
5,5,5.5|
5,6,9.1|
5,7,3.4|
6,0,9.9|
6,1,5.4|
6,2,3|
6,3,8.9|
6,4,4.8|
6,5,4.6|
6,6,0.61|
6,7,2.9|
7,0,5.8|
7,1,5.4|
7,2,2.2|
7,3,0.074|
7,4,2.3|
7,5,5.2|
7,6,6.9|
7,7,3.1|
];
constraint_x7_x3=[
0,0,0.82|
0,1,1.9|
0,2,6.4|
0,3,2.6|
0,4,4.7|
0,5,1.9|
0,6,6|
0,7,0.62|
1,0,5.7|
1,1,9.6|
1,2,1.6|
1,3,3.1|
1,4,5.1|
1,5,4.9|
1,6,9.6|
1,7,6|
2,0,4.5|
2,1,7.7|
2,2,2.6|
2,3,3.7|
2,4,2.3|
2,5,3.7|
2,6,4.6|
2,7,10|
3,0,1|
3,1,4.3|
3,2,2.5|
3,3,3.1|
3,4,4|
3,5,0.89|
3,6,8.2|
3,7,7.1|
4,0,9.1|
4,1,2.1|
4,2,0.014|
4,3,4.2|
4,4,7.6|
4,5,7.2|
4,6,0.86|
4,7,1.8|
5,0,8.7|
5,1,2.6|
5,2,9.5|
5,3,9.6|
5,4,0.97|
5,5,6.4|
5,6,1|
5,7,1.8|
6,0,2.7|
6,1,4.1|
6,2,2.7|
6,3,9.2|
6,4,3.7|
6,5,9.2|
6,6,0.49|
6,7,4.2|
7,0,8.1|
7,1,9.1|
7,2,1.6|
7,3,0.31|
7,4,6.5|
7,5,4.5|
7,6,4.5|
7,7,1.4|
];
constraint_x8_x4=[
0,0,3.1|
0,1,2.1|
0,2,6.4|
0,3,6.7|
0,4,9.4|
0,5,9.3|
0,6,6.5|
0,7,4.2|
1,0,5|
1,1,2.6|
1,2,1.5|
1,3,6.3|
1,4,7|
1,5,7.6|
1,6,5|
1,7,1.2|
2,0,2.9|
2,1,6.1|
2,2,1.7|
2,3,9.3|
2,4,1.2|
2,5,6.8|
2,6,5.8|
2,7,4.5|
3,0,6.6|
3,1,1.3|
3,2,3.2|
3,3,9.6|
3,4,6|
3,5,1.4|
3,6,6.1|
3,7,6.7|
4,0,0.48|
4,1,3.4|
4,2,2.7|
4,3,1.6|
4,4,0.45|
4,5,4.6|
4,6,5.5|
4,7,2.8|
5,0,9.7|
5,1,2.9|
5,2,2.8|
5,3,9.2|
5,4,5.5|
5,5,9.5|
5,6,0.69|
5,7,0.34|
6,0,0.21|
6,1,6.3|
6,2,8.4|
6,3,9|
6,4,5.4|
6,5,4.6|
6,6,0.029|
6,7,5.9|
7,0,3|
7,1,6.5|
7,2,8.7|
7,3,2.5|
7,4,2.2|
7,5,6.9|
7,6,3.8|
7,7,4.1|
];
constraint_x9_x5=[
0,0,5.4|
0,1,3.7|
0,2,7|
0,3,8.1|
0,4,5.8|
0,5,2.1|
0,6,2.3|
0,7,7.6|
1,0,4.8|
1,1,7.8|
1,2,7.7|
1,3,9|
1,4,3|
1,5,8.6|
1,6,8.8|
1,7,6.1|
2,0,8.7|
2,1,7.7|
2,2,8.1|
2,3,5.6|
2,4,8|
2,5,1.7|
2,6,7.1|
2,7,2.5|
3,0,3.9|
3,1,4.5|
3,2,5.2|
3,3,0.48|
3,4,6.3|
3,5,7.1|
3,6,7.6|
3,7,9|
4,0,1.5|
4,1,5.9|
4,2,6.1|
4,3,6.6|
4,4,3.7|
4,5,0.77|
4,6,1.5|
4,7,2.1|
5,0,1.6|
5,1,8.7|
5,2,4.7|
5,3,9.9|
5,4,7.8|
5,5,6.6|
5,6,9.3|
5,7,2.7|
6,0,5.2|
6,1,7.7|
6,2,2.4|
6,3,8.4|
6,4,3.5|
6,5,1|
6,6,0.06|
6,7,2.4|
7,0,8.5|
7,1,7.5|
7,2,4.2|
7,3,7.6|
7,4,1.1|
7,5,4.1|
7,6,5.5|
7,7,4.3|
];
constraint_x10_x6=[
0,0,9|
0,1,6.2|
0,2,1.1|
0,3,1.3|
0,4,7.6|
0,5,0.96|
0,6,0.95|
0,7,2.5|
1,0,4.2|
1,1,6.8|
1,2,3.6|
1,3,9.5|
1,4,8.8|
1,5,0.036|
1,6,8.8|
1,7,3.5|
2,0,4.3|
2,1,8.9|
2,2,4.4|
2,3,4.9|
2,4,3|
2,5,7|
2,6,6.6|
2,7,2|
3,0,9.3|
3,1,6.6|
3,2,3.7|
3,3,5.8|
3,4,0.15|
3,5,0.67|
3,6,8.8|
3,7,2.3|
4,0,2.9|
4,1,2.2|
4,2,7.2|
4,3,5.3|
4,4,7.3|
4,5,3.8|
4,6,1.8|
4,7,7.1|
5,0,4.7|
5,1,9.7|
5,2,6.6|
5,3,7.9|
5,4,7.4|
5,5,2.9|
5,6,9.5|
5,7,7.2|
6,0,8.5|
6,1,4.6|
6,2,1.3|
6,3,7.8|
6,4,2.6|
6,5,5.6|
6,6,5.4|
6,7,9.9|
7,0,3.6|
7,1,9.4|
7,2,5.5|
7,3,0.8|
7,4,2.3|
7,5,6.3|
7,6,2.8|
7,7,7.3|
];
constraint_x11_x7=[
0,0,5.7|
0,1,1.6|
0,2,6.1|
0,3,1.9|
0,4,2.5|
0,5,7.9|
0,6,9.6|
0,7,4|
1,0,9.9|
1,1,8.1|
1,2,2.7|
1,3,2|
1,4,9.8|
1,5,6.3|
1,6,0.73|
1,7,7.3|
2,0,3.3|
2,1,1.2|
2,2,9.8|
2,3,3.3|
2,4,2.4|
2,5,0.89|
2,6,6.1|
2,7,8.8|
3,0,3.8|
3,1,7.4|
3,2,5|
3,3,3.2|
3,4,6.3|
3,5,0.87|
3,6,1.9|
3,7,2|
4,0,4|
4,1,0.2|
4,2,3.2|
4,3,5.2|
4,4,8.6|
4,5,5.6|
4,6,9|
4,7,0.0071|
5,0,6.8|
5,1,2.2|
5,2,7.3|
5,3,4.9|
5,4,3.1|
5,5,3.9|
5,6,3.8|
5,7,5.2|
6,0,7.2|
6,1,7.6|
6,2,0.43|
6,3,1.1|
6,4,7.4|
6,5,3.2|
6,6,0.15|
6,7,3.3|
7,0,3.2|
7,1,5.1|
7,2,8|
7,3,7|
7,4,8.7|
7,5,8.2|
7,6,0.29|
7,7,2.5|
];
constraint_x12_x8=[
0,0,2.8|
0,1,4.6|
0,2,3.1|
0,3,1.6|
0,4,9.2|
0,5,0.33|
0,6,8.6|
0,7,8.8|
1,0,6.3|
1,1,7.9|
1,2,9.8|
1,3,5.5|
1,4,3.6|
1,5,4.9|
1,6,4.3|
1,7,5.8|
2,0,9.9|
2,1,1.1|
2,2,2.2|
2,3,5.4|
2,4,7.6|
2,5,3.8|
2,6,6|
2,7,0.91|
3,0,0.59|
3,1,8.8|
3,2,8|
3,3,3.4|
3,4,8.4|
3,5,2.7|
3,6,5.2|
3,7,7.2|
4,0,6.5|
4,1,4.4|
4,2,2.6|
4,3,3.2|
4,4,1.6|
4,5,6.3|
4,6,4.2|
4,7,1.6|
5,0,8.6|
5,1,8.1|
5,2,4.1|
5,3,2.4|
5,4,3.2|
5,5,7.4|
5,6,7.2|
5,7,1.1|
6,0,3.4|
6,1,6.1|
6,2,7.7|
6,3,8.1|
6,4,0.38|
6,5,2.1|
6,6,6.9|
6,7,2.2|
7,0,0.36|
7,1,1.6|
7,2,7.4|
7,3,2|
7,4,8.1|
7,5,1.9|
7,6,3|
7,7,4.1|
];
constraint_x13_x9=[
0,0,1.5|
0,1,2.9|
0,2,7|
0,3,9.1|
0,4,1.1|
0,5,3.5|
0,6,1.5|
0,7,4.9|
1,0,2.1|
1,1,4.7|
1,2,9.7|
1,3,0.7|
1,4,3.9|
1,5,0.72|
1,6,6.9|
1,7,0.16|
2,0,4.4|
2,1,3.9|
2,2,7.5|
2,3,9.9|
2,4,1.9|
2,5,7.2|
2,6,7|
2,7,4.2|
3,0,9.3|
3,1,8.9|
3,2,0.38|
3,3,8.5|
3,4,0.35|
3,5,4.4|
3,6,4.2|
3,7,2.8|
4,0,1.2|
4,1,8.7|
4,2,3.8|
4,3,2.3|
4,4,4.3|
4,5,5.5|
4,6,3.7|
4,7,1.7|
5,0,1.2|
5,1,1.3|
5,2,1.1|
5,3,3.5|
5,4,4.3|
5,5,1.8|
5,6,2.1|
5,7,6.1|
6,0,2.7|
6,1,7.3|
6,2,6.7|
6,3,5.1|
6,4,6|
6,5,4.2|
6,6,3.1|
6,7,8.6|
7,0,2.5|
7,1,7.3|
7,2,5.3|
7,3,3.8|
7,4,0.82|
7,5,0.3|
7,6,6.1|
7,7,2|
];
constraint_x14_x10=[
0,0,4.8|
0,1,8.8|
0,2,5|
0,3,2.1|
0,4,3.9|
0,5,4.4|
0,6,0.74|
0,7,1.3|
1,0,3|
1,1,9.6|
1,2,0.83|
1,3,5.5|
1,4,4.5|
1,5,2.6|
1,6,4.3|
1,7,0.87|
2,0,7.2|
2,1,9.8|
2,2,6.3|
2,3,5.9|
2,4,6.3|
2,5,7.1|
2,6,6|
2,7,0.45|
3,0,1.7|
3,1,5.5|
3,2,0.99|
3,3,1.1|
3,4,2.8|
3,5,9.7|
3,6,4.1|
3,7,3.7|
4,0,3|
4,1,2.5|
4,2,9.1|
4,3,8.6|
4,4,4.7|
4,5,1.9|
4,6,5.7|
4,7,3.9|
5,0,6.7|
5,1,8.2|
5,2,2.4|
5,3,9.3|
5,4,3|
5,5,3.4|
5,6,2.9|
5,7,7.1|
6,0,4.5|
6,1,0.81|
6,2,9.5|
6,3,3.8|
6,4,9.9|
6,5,9.6|
6,6,0.88|
6,7,7.1|
7,0,6.7|
7,1,6.1|
7,2,0.88|
7,3,3.6|
7,4,8.9|
7,5,5.1|
7,6,4|
7,7,5.3|
];
constraint_x15_x11=[
0,0,9.5|
0,1,5.3|
0,2,0.018|
0,3,2.1|
0,4,2.1|
0,5,4.1|
0,6,4.4|
0,7,7.5|
1,0,7.6|
1,1,8.2|
1,2,8.7|
1,3,3.9|
1,4,1.3|
1,5,5.8|
1,6,0.31|
1,7,6.7|
2,0,7.5|
2,1,8.3|
2,2,4.4|
2,3,0.87|
2,4,6.2|
2,5,7.4|
2,6,5.1|
2,7,5.7|
3,0,0.24|
3,1,4|
3,2,7|
3,3,5.1|
3,4,3.4|
3,5,6.9|
3,6,1.3|
3,7,6.4|
4,0,6.2|
4,1,9.1|
4,2,1.4|
4,3,3.6|
4,4,0.91|
4,5,4.7|
4,6,4.9|
4,7,5.5|
5,0,2.5|
5,1,2.2|
5,2,6.5|
5,3,3.3|
5,4,5|
5,5,2.7|
5,6,4.5|
5,7,5.4|
6,0,0.47|
6,1,9.6|
6,2,6|
6,3,9.8|
6,4,4.4|
6,5,2.8|
6,6,8.6|
6,7,8.7|
7,0,8.5|
7,1,1.1|
7,2,1.2|
7,3,5|
7,4,8.1|
7,5,0.46|
7,6,2.4|
7,7,4|
];
constraint_x16_x12=[
0,0,8.7|
0,1,1.6|
0,2,1.1|
0,3,4.3|
0,4,1.6|
0,5,0.64|
0,6,5.1|
0,7,0.96|
1,0,2.9|
1,1,0.23|
1,2,6.4|
1,3,8.3|
1,4,0.89|
1,5,4.6|
1,6,5.4|
1,7,3|
2,0,6.2|
2,1,7|
2,2,5.5|
2,3,6.6|
2,4,0.086|
2,5,8.4|
2,6,7.4|
2,7,6.8|
3,0,7.8|
3,1,4.3|
3,2,3.1|
3,3,8.6|
3,4,1.8|
3,5,7.3|
3,6,3.9|
3,7,2.7|
4,0,3.1|
4,1,1.4|
4,2,8.8|
4,3,2.9|
4,4,7.4|
4,5,3|
4,6,3.1|
4,7,5.7|
5,0,2.6|
5,1,4.6|
5,2,5.2|
5,3,6.2|
5,4,3.8|
5,5,3.9|
5,6,4.2|
5,7,7.3|
6,0,0.004|
6,1,0.47|
6,2,5.7|
6,3,7.3|
6,4,0.78|
6,5,0.77|
6,6,4.6|
6,7,0.54|
7,0,8|
7,1,7|
7,2,2.7|
7,3,5.2|
7,4,8|
7,5,6|
7,6,7.7|
7,7,2.9|
];
constraint_x17_x13=[
0,0,8.1|
0,1,7.8|
0,2,6.7|
0,3,7.1|
0,4,2|
0,5,3.8|
0,6,1.5|
0,7,8.2|
1,0,8|
1,1,0.88|
1,2,7.9|
1,3,3.4|
1,4,0.31|
1,5,9.6|
1,6,3.5|
1,7,9.6|
2,0,8.3|
2,1,5.9|
2,2,9.4|
2,3,5.8|
2,4,2|
2,5,8.3|
2,6,1.1|
2,7,5.9|
3,0,7.2|
3,1,4.3|
3,2,9|
3,3,2.4|
3,4,4.5|
3,5,3.5|
3,6,8.1|
3,7,7.4|
4,0,4.9|
4,1,0.81|
4,2,7.1|
4,3,9.7|
4,4,0.82|
4,5,8.1|
4,6,5.2|
4,7,2.8|
5,0,8|
5,1,2.7|
5,2,5.6|
5,3,7.5|
5,4,7|
5,5,5.4|
5,6,6|
5,7,3.6|
6,0,4.8|
6,1,0.66|
6,2,3.7|
6,3,4.1|
6,4,8.8|
6,5,1.4|
6,6,9|
6,7,9.3|
7,0,7.1|
7,1,0.075|
7,2,2.4|
7,3,3.6|
7,4,2.3|
7,5,2.6|
7,6,0.44|
7,7,3.8|
];
constraint_x18_x14=[
0,0,3.4|
0,1,3.7|
0,2,2.5|
0,3,7.3|
0,4,6|
0,5,9.3|
0,6,3.7|
0,7,3|
1,0,2|
1,1,9.2|
1,2,6.6|
1,3,3.5|
1,4,4.1|
1,5,6.1|
1,6,5|
1,7,3.1|
2,0,8.4|
2,1,9.6|
2,2,4.2|
2,3,1.7|
2,4,3.7|
2,5,3.7|
2,6,6.5|
2,7,0.25|
3,0,5.2|
3,1,0.55|
3,2,2.4|
3,3,7.1|
3,4,7.6|
3,5,3.2|
3,6,7.9|
3,7,4.4|
4,0,1.5|
4,1,3.7|
4,2,3.3|
4,3,0.7|
4,4,2.6|
4,5,0.68|
4,6,1.8|
4,7,4.9|
5,0,10|
5,1,5.8|
5,2,6.9|
5,3,4.3|
5,4,0.37|
5,5,0.53|
5,6,9.2|
5,7,1.4|
6,0,4|
6,1,8.9|
6,2,2.5|
6,3,2.9|
6,4,3.9|
6,5,6.9|
6,6,9.5|
6,7,8.8|
7,0,4.3|
7,1,8.8|
7,2,8.7|
7,3,1.5|
7,4,6.7|
7,5,9.8|
7,6,8.9|
7,7,0.37|
];
constraint_x1_y1=[
0,0,1.5|
0,1,3|
0,2,2.4|
0,3,4.5|
0,4,9.4|
0,5,1.6|
0,6,8.7|
0,7,9.7|
1,0,4.2|
1,1,3.6|
1,2,7.3|
1,3,9.1|
1,4,6.9|
1,5,2.7|
1,6,5|
1,7,9.9|
2,0,0.86|
2,1,5.4|
2,2,8.7|
2,3,0.68|
2,4,4.8|
2,5,8.5|
2,6,7.4|
2,7,0.47|
3,0,0.65|
3,1,1.6|
3,2,7.1|
3,3,4.4|
3,4,2.1|
3,5,0.84|
3,6,9.8|
3,7,2|
4,0,3.3|
4,1,9.8|
4,2,4|
4,3,5.9|
4,4,2.7|
4,5,9.2|
4,6,6.6|
4,7,8.5|
5,0,9.7|
5,1,1.5|
5,2,2|
5,3,4.3|
5,4,6.7|
5,5,0.47|
5,6,2.5|
5,7,9.3|
6,0,8.3|
6,1,4.8|
6,2,0.01|
6,3,7.3|
6,4,9.1|
6,5,3.8|
6,6,3.4|
6,7,9.7|
7,0,9.1|
7,1,1.6|
7,2,2.2|
7,3,7.2|
7,4,3.3|
7,5,3.5|
7,6,4|
7,7,0.85|
];
constraint_x2_y2=[
0,0,3.9|
0,1,7.4|
0,2,6.4|
0,3,6.1|
0,4,2.2|
0,5,0.73|
0,6,5.1|
0,7,5.4|
1,0,6.6|
1,1,5.3|
1,2,4.6|
1,3,2.9|
1,4,4|
1,5,8.6|
1,6,2.7|
1,7,4|
2,0,0.16|
2,1,7.8|
2,2,2.5|
2,3,3.6|
2,4,3.8|
2,5,7.9|
2,6,2|
2,7,8.7|
3,0,2.6|
3,1,9.2|
3,2,3.5|
3,3,2.1|
3,4,1.9|
3,5,9.3|
3,6,6.8|
3,7,1.9|
4,0,8|
4,1,6.6|
4,2,6.2|
4,3,2.3|
4,4,2.4|
4,5,3|
4,6,4.7|
4,7,4.3|
5,0,9.9|
5,1,6.6|
5,2,8.7|
5,3,8.9|
5,4,6.1|
5,5,9.3|
5,6,0.62|
5,7,2.8|
6,0,4|
6,1,2.8|
6,2,2.7|
6,3,3.7|
6,4,0.29|
6,5,5.3|
6,6,5.9|
6,7,3.7|
7,0,5.6|
7,1,8.9|
7,2,6.3|
7,3,9.2|
7,4,9.1|
7,5,3.1|
7,6,7.4|
7,7,5.4|
];
constraint_x3_y3=[
0,0,6.3|
0,1,3.2|
0,2,5.7|
0,3,8.5|
0,4,3.4|
0,5,2.9|
0,6,1.5|
0,7,0.81|
1,0,8.9|
1,1,2.5|
1,2,6.9|
1,3,8.3|
1,4,4.5|
1,5,7.1|
1,6,9.3|
1,7,3.6|
2,0,2.3|
2,1,6.4|
2,2,0.016|
2,3,6|
2,4,7.8|
2,5,3.6|
2,6,1.1|
2,7,2.1|
3,0,6.4|
3,1,2.5|
3,2,6|
3,3,1.8|
3,4,5.3|
3,5,6.6|
3,6,8.1|
3,7,6.4|
4,0,5.9|
4,1,8|
4,2,2.4|
4,3,7.2|
4,4,10|
4,5,10|
4,6,7|
4,7,0.51|
5,0,5.5|
5,1,8.2|
5,2,4.7|
5,3,5.4|
5,4,0.59|
5,5,0.84|
5,6,2.3|
5,7,1.2|
6,0,2.2|
6,1,6.7|
6,2,7.5|
6,3,1.4|
6,4,9.9|
6,5,5.8|
6,6,6.9|
6,7,1.9|
7,0,9.3|
7,1,5.6|
7,2,5.6|
7,3,2.7|
7,4,1.3|
7,5,8.1|
7,6,0.19|
7,7,2.6|
];
constraint_x4_y4=[
0,0,7.5|
0,1,1.8|
0,2,3.3|
0,3,1.7|
0,4,8|
0,5,1.9|
0,6,1.9|
0,7,4.4|
1,0,0.72|
1,1,8.7|
1,2,1.6|
1,3,2.1|
1,4,4.7|
1,5,4.7|
1,6,9.8|
1,7,1.4|
2,0,2.2|
2,1,1.5|
2,2,6.1|
2,3,9.6|
2,4,5.5|
2,5,0.14|
2,6,3.7|
2,7,4.4|
3,0,5.6|
3,1,8.8|
3,2,1.2|
3,3,6.5|
3,4,2|
3,5,0.17|
3,6,5.7|
3,7,9.9|
4,0,3.9|
4,1,8.8|
4,2,0.17|
4,3,7.4|
4,4,0.64|
4,5,6.4|
4,6,8.3|
4,7,6.6|
5,0,4.5|
5,1,4.9|
5,2,8.9|
5,3,2.6|
5,4,4.8|
5,5,4.3|
5,6,2.7|
5,7,4.8|
6,0,3.8|
6,1,2.8|
6,2,7.2|
6,3,5.1|
6,4,9|
6,5,3.8|
6,6,1.4|
6,7,2.3|
7,0,8|
7,1,8.6|
7,2,4.6|
7,3,2.4|
7,4,9.4|
7,5,0.36|
7,6,9.6|
7,7,9.1|
];
constraint_x5_y5=[
0,0,2.8|
0,1,4.2|
0,2,3|
0,3,0.12|
0,4,0.62|
0,5,0.02|
0,6,2.3|
0,7,2.2|
1,0,5|
1,1,4.1|
1,2,1.6|
1,3,1.5|
1,4,5.3|
1,5,5.2|
1,6,6.4|
1,7,2.8|
2,0,4.2|
2,1,4.9|
2,2,3.2|
2,3,0.71|
2,4,1.4|
2,5,2|
2,6,6.1|
2,7,4.2|
3,0,8.3|
3,1,0.56|
3,2,5.9|
3,3,6.3|
3,4,3.2|
3,5,2.8|
3,6,4.1|
3,7,1|
4,0,6.5|
4,1,0.19|
4,2,2.9|
4,3,0.55|
4,4,3.5|
4,5,2|
4,6,0.84|
4,7,3.3|
5,0,7.2|
5,1,9|
5,2,4.6|
5,3,7.4|
5,4,8.2|
5,5,4.7|
5,6,7.6|
5,7,6.8|
6,0,0.91|
6,1,9.8|
6,2,2.3|
6,3,7.5|
6,4,0.06|
6,5,8|
6,6,4.2|
6,7,9.9|
7,0,2.5|
7,1,6.1|
7,2,1.3|
7,3,2.6|
7,4,2.1|
7,5,0.86|
7,6,7.6|
7,7,8.6|
];
constraint_x6_y6=[
0,0,1.9|
0,1,8.7|
0,2,4.5|
0,3,3.5|
0,4,2.9|
0,5,1.5|
0,6,7.4|
0,7,0.21|
1,0,8.4|
1,1,9.3|
1,2,7.3|
1,3,9.5|
1,4,8.3|
1,5,0.39|
1,6,7.8|
1,7,8.3|
2,0,2|
2,1,9.7|
2,2,6.4|
2,3,1.8|
2,4,3.2|
2,5,5.6|
2,6,4|
2,7,0.35|
3,0,0.17|
3,1,8.3|
3,2,5.8|
3,3,3.2|
3,4,9.2|
3,5,5.1|
3,6,0.097|
3,7,4.3|
4,0,7.2|
4,1,0.6|
4,2,4.1|
4,3,9.9|
4,4,0.12|
4,5,7.9|
4,6,1.6|
4,7,5.5|
5,0,5.5|
5,1,5.1|
5,2,7.9|
5,3,1.3|
5,4,3.7|
5,5,8|
5,6,9.9|
5,7,5.2|
6,0,5.8|
6,1,0.17|
6,2,9.8|
6,3,6.5|
6,4,7.1|
6,5,2.9|
6,6,7.9|
6,7,3.9|
7,0,3.5|
7,1,7.6|
7,2,4.9|
7,3,9.9|
7,4,7.1|
7,5,3.3|
7,6,7.7|
7,7,2.9|
];
constraint_x7_y7=[
0,0,4.5|
0,1,1.7|
0,2,0.54|
0,3,9.7|
0,4,6.4|
0,5,7.4|
0,6,0.28|
0,7,7.1|
1,0,8.6|
1,1,9|
1,2,7.4|
1,3,5.1|
1,4,4.8|
1,5,7.9|
1,6,2.3|
1,7,9.2|
2,0,4.6|
2,1,0.91|
2,2,7.5|
2,3,5|
2,4,3.1|
2,5,1.1|
2,6,0.71|
2,7,9|
3,0,0.94|
3,1,9.4|
3,2,2.5|
3,3,7.1|
3,4,5.8|
3,5,9.1|
3,6,8.1|
3,7,8.8|
4,0,2.3|
4,1,9.5|
4,2,0.83|
4,3,4|
4,4,4.9|
4,5,7.3|
4,6,0.65|
4,7,8.8|
5,0,6.5|
5,1,3.3|
5,2,8.1|
5,3,4.9|
5,4,2.1|
5,5,0.61|
5,6,2.7|
5,7,5.5|
6,0,0.81|
6,1,2.2|
6,2,2|
6,3,5.8|
6,4,2.8|
6,5,9.4|
6,6,7.8|
6,7,2|
7,0,5|
7,1,9.9|
7,2,7.6|
7,3,9.4|
7,4,1.9|
7,5,9.4|
7,6,7.9|
7,7,0.68|
];
constraint_x8_y8=[
0,0,3.2|
0,1,8.2|
0,2,1.4|
0,3,6.1|
0,4,4.3|
0,5,3.1|
0,6,3.3|
0,7,7.3|
1,0,5.4|
1,1,2.1|
1,2,6.5|
1,3,7.5|
1,4,8.5|
1,5,3.5|
1,6,8.9|
1,7,8.2|
2,0,1|
2,1,7.7|
2,2,3.8|
2,3,9.1|
2,4,0.63|
2,5,8.1|
2,6,3.5|
2,7,5.1|
3,0,8.1|
3,1,1.3|
3,2,6|
3,3,4|
3,4,4|
3,5,8|
3,6,5.6|
3,7,9.1|
4,0,9.6|
4,1,3.7|
4,2,0.46|
4,3,5.5|
4,4,9.7|
4,5,7.5|
4,6,6.9|
4,7,9.4|
5,0,5.4|
5,1,1.1|
5,2,4.4|
5,3,4|
5,4,4.8|
5,5,5.1|
5,6,5.4|
5,7,6|
6,0,2.1|
6,1,6.1|
6,2,3.4|
6,3,7.2|
6,4,1.9|
6,5,6.9|
6,6,7.1|
6,7,6.1|
7,0,2.1|
7,1,2.4|
7,2,0.52|
7,3,1.5|
7,4,8.7|
7,5,1.2|
7,6,8.1|
7,7,9.9|
];
initial_distribution_y1=[0.13,0.066,0.013,0.039,0.091,0.22,0.24,0.2];
initial_distribution_y2=[0.21,0.11,0.021,0.13,0.18,0.17,0.088,0.089];
initial_distribution_y3=[0.088,0.19,0.026,0.24,0.16,0.071,0.21,0.013];
initial_distribution_y4=[0.15,0.13,0.18,0.086,0.082,0.14,0.1,0.13];
initial_distribution_y5=[0.15,0.088,0.16,0.049,0.24,0.13,0.015,0.18];
initial_distribution_y6=[0.025,0.18,0.2,0.017,0.11,0.029,0.17,0.27];
initial_distribution_y7=[0.044,0.29,0.21,0.032,0.076,0.1,0.09,0.15];
initial_distribution_y8=[0.26,0.031,0.15,0.17,0.009,0.15,0.08,0.15];
transition_y1=[
0.065,0.027,0.13,0.11,0.16,0.18,0.21,0.12|
0.16,0.16,0.031,0.12,0.089,0.21,0.069,0.17|
0.13,0.026,0.21,0.22,0.2,0.038,0.055,0.11|
0.21,0.074,0.092,0.15,0.036,0.04,0.18,0.22|
0.062,0.0087,0.15,0.16,0.21,0.027,0.13,0.26|
0.15,0.18,0.17,0.025,0.069,0.11,0.14,0.16|
0.16,0.039,0.038,0.18,0.15,0.18,0.14,0.12|
0.025,0.25,0.041,0.18,0.099,0.23,0.14,0.038|
];
transition_y2=[
0.2,0.19,0.011,0.11,0.089,0.069,0.11,0.22|
0.22,0.11,0.098,0.11,0.17,0.089,0.16,0.046|
0.12,0.064,0.069,0.15,0.11,0.2,0.22,0.06|
0.14,0.2,0.13,0.19,0.05,0.088,0.13,0.078|
0.18,0.026,0.17,0.19,0.23,0.096,0.1,0.0042|
0.11,0.037,0.16,0.11,0.15,0.19,0.2,0.047|
0.17,0.099,0.051,0.085,0.27,0.2,0.097,0.026|
0.014,0.08,0.045,0.048,0.26,0.091,0.2,0.26|
];
transition_y3=[
0.011,0.19,0.01,0.14,0.16,0.2,0.13,0.15|
0.031,0.17,0.19,0.085,0.14,0.15,0.048,0.18|
0.043,0.13,0.031,0.18,0.17,0.14,0.17,0.14|
0.069,0.19,0.12,0.031,0.15,0.13,0.19,0.12|
0.32,0.035,0.091,0.054,0.12,0.11,0.21,0.065|
0.085,0.22,0.072,0.21,0.1,0.12,0.15,0.043|
0.071,0.024,0.15,0.11,0.28,0.047,0.22,0.1|
0.11,0.12,0.13,0.19,0.1,0.088,0.14,0.12|
];
transition_y4=[
0.074,0.17,0.18,0.046,0.13,0.11,0.18,0.1|
0.16,0.19,0.048,0.031,0.22,0.13,0.032,0.18|
0.19,0.16,0.12,0.13,0.12,0.033,0.15,0.089|
0.16,0.17,0.062,0.16,0.21,0.066,0.17,0.0095|
0.021,0.19,0.12,0.21,0.11,0.12,0.14,0.094|
0.092,0.15,0.083,0.068,0.039,0.092,0.27,0.21|
0.22,0.2,0.052,0.043,0.0042,0.063,0.14,0.28|
0.012,0.046,0.16,0.2,0.17,0.21,0.13,0.072|
];
transition_y5=[
0.086,0.15,0.068,0.13,0.15,0.096,0.17,0.16|
0.048,0.18,0.12,0.16,0.054,0.089,0.17,0.17|
0.02,0.21,0.032,0.13,0.18,0.26,0.14,0.022|
0.065,0.16,0.2,0.28,0.023,0.037,0.087,0.15|
0.21,0.019,0.053,0.0083,0.22,0.2,0.12,0.17|
0.071,0.032,0.031,0.19,0.15,0.21,0.12,0.19|
0.13,0.15,0.093,0.2,0.062,0.23,0.032,0.098|
0.094,0.16,0.16,0.14,0.12,0.1,0.12,0.12|
];
transition_y6=[
0.1,0.069,0.1,0.23,0.0071,0.17,0.17,0.15|
0.11,0.19,0.23,0.12,0.12,0.017,0.057,0.16|
0.13,0.035,0.17,0.14,0.11,0.11,0.12,0.19|
0.13,0.26,0.12,0.14,0.031,0.012,0.18,0.14|
0.13,0.2,0.22,0.068,0.22,0.03,0.053,0.088|
0.19,0.008,0.085,0.14,0.19,0.16,0.18,0.046|
0.19,0.18,0.018,0.19,0.0089,0.21,0.11,0.11|
0.13,0.047,0.17,0.18,0.069,0.14,0.15,0.11|
];
transition_y7=[
0.25,0.16,0.0065,0.029,0.0033,0.12,0.19,0.23|
0.044,0.034,0.14,0.12,0.16,0.19,0.2,0.11|
0.074,0.22,0.15,0.13,0.01,0.1,0.19,0.13|
0.046,0.14,0.044,0.21,0.22,0.058,0.11,0.18|
0.21,0.052,0.037,0.28,0.0099,0.25,0.068,0.1|
0.25,0.091,0.011,0.045,0.046,0.25,0.2,0.11|
0.14,0.091,0.11,0.074,0.11,0.15,0.11,0.22|
0.11,0.16,0.0077,0.19,0.072,0.18,0.14,0.15|
];
transition_y8=[
0.21,0.22,0.033,0.23,0.19,0.013,0.093,0.0071|
0.071,0.095,0.048,0.16,0.11,0.16,0.18,0.17|
0.028,0.19,0.11,0.18,0.14,0.12,0.16,0.076|
0.11,0.11,0.23,0.21,0.068,0.21,0.048,0.0053|
0.22,0.14,0.04,0.15,0.22,0.086,0.021,0.12|
0.19,0.068,0.049,0.21,0.099,0.22,0.15,0.019|
0.11,0.14,0.1,0.19,0.055,0.17,0.14,0.094|
0.16,0.092,0.052,0.2,0.13,0.093,0.044,0.24|
];
